2 5 29 23 31 45 38 3 51 37 1 21 7 34 1 32 39 19 41 27 11 50 30 1 40 26 22 15 6 4 1 42 25 12 35 53 14 1 46 49 43 44 24 20 16 33 1 48 10 18 8 17 13 1 52 47 9 36 28 1 2 5 29 23 31 45 38 3 51 37 1  (727)
Cost 1328.12

